NAME : prob35c.7949.tour
COMMENT : Cost = 0_7949
COMMENT : Found by LKH [Keld Helsgaun] Sun Sep 17 01:06:49 2017
TYPE : TOUR
DIMENSION : 71
TOUR_SECTION
1
57
50
51
58
70
42
40
44
63
69
41
49
53
48
64
55
60
28
16
6
66
38
52
18
62
71
13
29
23
45
34
7
36
65
10
22
67
61
37
39
68
9
54
3
56
47
4
19
26
59
33
46
43
21
15
27
24
32
2
17
30
20
35
14
12
11
25
5
8
31
-1
EOF
